c turning on binary mode checking
c parsing input formula with 259840 variables and 1039934 clauses
c finished parsing, read 23110440 bytes from proof file
c detected empty clause; start verification via backward checking
c 3823 of 1039934 clauses in core                            
c 4446 of 601446 lemmas in core using 20319 resolution steps
c 0 RAT lemmas in core; 172 redundant literals in core lemmas
s VERIFIED
c verification time: 2.458 seconds
